20
idealized all-anti n-hexane (C-C 1.54 A, C-H 1.09 A, tetrahedral angles); C3-C4 midpoint at origin
C -3.1435118366 -0.4445597073  0.0000000000
C -1.8861071019  0.4445597073  0.0000000000
C -0.6287023673 -0.4445597073  0.0000000000
C  0.6287023673  0.4445597073  0.0000000000
C  1.8861071019 -0.4445597073  0.0000000000
C  3.1435118366  0.4445597073  0.0000000000
H -4.0334931098  0.1847520861  0.0000000000
H -3.1435118366 -1.0738715007  0.8899812732
H -3.1435118366 -1.0738715007 -0.8899812732
H -1.8861071019  1.0738715007  0.8899812732
H -1.8861071019  1.0738715007 -0.8899812732
H -0.6287023673 -1.0738715007 -0.8899812732
H -0.6287023673 -1.0738715007  0.8899812732
H  0.6287023673  1.0738715007  0.8899812732
H  0.6287023673  1.0738715007 -0.8899812732
H  1.8861071019 -1.0738715007 -0.8899812732
H  1.8861071019 -1.0738715007  0.8899812732
H  4.0334931098 -0.1847520861  0.0000000000
H  3.1435118366  1.0738715007  0.8899812732
H  3.1435118366  1.0738715007 -0.8899812732
